\* column_knapsack_problem *\
Minimize
knapsack: 27 col_18 + 25 col_22 + 26 col_35 + 25 col_39 + 26 col_47
 + 26 col_49 + 25 col_7 + 25 col_8
Subject To
sensitivity: col_18 + 3 col_22 + 2 col_35 + 3 col_39 + 2 col_47 + 2 col_49
 + 3 col_7 + 3 col_8 >= 1.9
Bounds
 col_18 <= 1
 col_22 <= 1
 col_35 <= 1
 col_39 <= 1
 col_47 <= 1
 col_49 <= 1
 col_7 <= 1
 col_8 <= 1
End
